% demand
num_movements = 20;
loading_factor = [2000, 1400, 1500, 1100, 1350, 1800, 1400, 1850, 1850, 1000, 1300, 1300, 1000, 1050, 1450, 1250, 1300, 2000, 1400, 1000];
pickup_time = [0, 0, 0, 0, 2, 2, 2, 3, 3, 4, 4, 4, 4, 6, 6, 6, 7, 7, 7, 9];
delivery_time = [2, 2, 1, 3, 3, 3, 3, 6, 4, 5, 6, 6, 6, 10, 7, 10, 8, 10, 8, 10];

% transporter definition
total_capacity = 7000;
num_decks = 3;
capacity = [3000, 1000, 3000];

% ways out of decks
num_ways_out = 1;
paths_out = array3d(decks, ways_out, decks, [
% ways out of deck d1
2, 3, 0, 

% ways out of deck d2
3, 0, 0, 

% ways out of deck d3
0, 0, 0,	

]);

